# Objective value = 5.6237400000000116e+03
I_0_0 1547
I_0_1 1962
I_0_2 1.6720000000000066e+03
I_0_3 2.3530000000000073e+03
I_1_0 34
I_1_1 0
I_1_2 3.3999999999998622e+01
I_1_3 0
I_2_0 52
I_2_1 0
I_2_2 52
I_2_3 0
I_3_0 58
I_3_1 0
I_3_2 58
I_3_3 4.5985437679973984e-13
I_4_0 88
I_4_1 44
I_4_2 8.8000000000000682e+01
I_4_3 4.4000000000001585e+01
I_5_0 71
I_5_1 0
I_5_2 71
I_5_3 0
I_6_0 13
I_6_1 0
I_6_2 13
I_6_3 0
I_7_0 56
I_7_1 56
I_7_2 28
I_7_3 0
I_8_0 86
I_8_1 86
I_8_2 8.6000000000000668e+01
I_8_3 -6.6280314570121845e-13
I_9_0 72
I_9_1 0
I_9_2 72
I_9_3 -5.7198690228688065e-13
I_10_0 106
I_10_1 106
I_10_2 53
I_10_3 -3.7925218521195347e-13
I_11_0 60
I_11_1 60
I_11_2 2.9999999999999996e+01
I_11_3 0
I_12_0 28
I_12_1 28
I_12_2 14
I_12_3 0
I_13_0 55
I_13_1 55
I_13_2 55
I_13_3 0
I_14_0 32
I_14_1 1.5999999999999932e+01
I_14_2 3.2000000000000064e+01
I_14_3 1.5999999999997632e+01
I_15_0 55
I_15_1 0
I_15_2 55
I_15_3 0
q_1_0_0 0
q_1_0_1 68
q_1_0_2 0
q_1_1_0 0
q_1_1_1 -1.3784529073745944e-12
q_1_1_2 1.3781783824028211e-12
q_2_0_0 0
q_2_0_1 0
q_2_0_2 0
q_2_1_0 0
q_2_1_1 1.0399999999999892e+02
q_2_1_2 1.0844658504538519e-12
q_3_0_0 0
q_3_0_1 116
q_3_0_2 4.5985437679973984e-13
q_3_1_0 0
q_3_1_1 0
q_3_1_2 0
q_4_0_0 0
q_4_0_1 0
q_4_0_2 7.0143890695817390e-13
q_4_1_0 0
q_4_1_1 8.8000000000000682e+01
q_4_1_2 2.0389245847241e-13
q_5_0_0 0
q_5_0_1 0
q_5_0_2 0
q_5_1_0 0
q_5_1_1 142
q_5_1_2 0
q_6_0_0 0
q_6_0_1 26
q_6_0_2 3.0975222387041867e-13
q_6_1_0 0
q_6_1_1 0
q_6_1_2 -3.0986324617288119e-13
q_7_0_0 28
q_7_0_1 0
q_7_0_2 0
q_7_1_0 0
q_7_1_1 0
q_7_1_2 0
q_8_0_0 86
q_8_0_1 0
q_8_0_2 0
q_8_1_0 0
q_8_1_1 85.9999999999955
q_8_1_2 -1.3256062914024369e-12
q_9_0_0 0
q_9_0_1 144
q_9_0_2 -1.1439738045737613e-12
q_9_1_0 0
q_9_1_1 0
q_9_1_2 5.7198690228688065e-13
q_10_0_0 53
q_10_0_1 0
q_10_0_2 3.8191672047105385e-14
q_10_1_0 0
q_10_1_1 0
q_10_1_2 -4.1999737021569672e-13
q_11_0_0 30
q_11_0_1 -2.3906803895771243e-12
q_11_0_2 0
q_11_1_0 0
q_11_1_1 2.3874235921539366e-12
q_11_1_2 0
q_12_0_0 14
q_12_0_1 0
q_12_0_2 0
q_12_1_0 0
q_12_1_1 0
q_12_1_2 0
q_13_0_0 55
q_13_0_1 0
q_13_0_2 0
q_13_1_0 0
q_13_1_1 55
q_13_1_2 0
q_14_0_0 0
q_14_0_1 0
q_14_0_2 1.2889689315898067e-13
q_14_1_0 -6.8195449287600240e-14
q_14_1_1 3.2000000000000135e+01
q_14_1_2 -2.5638380307668740e-12
q_15_0_0 0
q_15_0_1 1.1000000000000001e+02
q_15_0_2 0
q_15_1_0 0
q_15_1_1 -1.7763568394002505e-15
q_15_1_2 0
y_0_0_0 1
y_0_0_1 1
y_0_0_2 -7.7021722333370235e-15
y_0_1_0 0
y_0_1_1 1
y_0_1_2 4.6386505747619822e-15
y_1_0_0 0
y_1_0_1 1
y_1_0_2 0
y_1_1_0 0
y_1_1_1 -2.0271366284920506e-14
y_1_1_2 0
y_2_0_0 0
y_2_0_1 0
y_2_0_2 0
y_2_1_0 0
y_2_1_1 1
y_2_1_2 0
y_3_0_0 0
y_3_0_1 1
y_3_0_2 7.9294210086899852e-15
y_3_1_0 0
y_3_1_1 0
y_3_1_2 0
y_4_0_0 0
y_4_0_1 0
y_4_0_2 0
y_4_1_0 0
y_4_1_1 1.0000000000000078e+00
y_4_1_2 -7.7004375098610467e-15
y_5_0_0 0
y_5_0_1 0
y_5_0_2 0
y_5_1_0 0
y_5_1_1 1
y_5_1_2 0
y_6_0_0 0
y_6_0_1 1
y_6_0_2 1.1914080833008711e-14
y_6_1_0 0
y_6_1_1 0
y_6_1_2 -1.1917550279960665e-14
y_7_0_0 1
y_7_0_1 0
y_7_0_2 0
y_7_1_0 0
y_7_1_1 0
y_7_1_2 0
y_8_0_0 1
y_8_0_1 0
y_8_0_2 0
y_8_1_0 0
y_8_1_1 1.0000000000000075e+00
y_8_1_2 -7.7021722333370235e-15
y_9_0_0 0
y_9_0_1 1
y_9_0_2 -7.9432987964978e-15
y_9_1_0 0
y_9_1_1 0
y_9_1_2 0
y_10_0_0 1
y_10_0_1 0
y_10_0_2 2.3592239273284576e-16
y_10_1_0 0
y_10_1_1 -3.83998388642226e-14
y_10_1_2 -7.9432987964978e-15
y_11_0_0 1
y_11_0_1 -3.9844673159618736e-14
y_11_0_2 0
y_11_1_0 0
y_11_1_1 3.9844673159618729e-14
y_11_1_2 0
y_12_0_0 1
y_12_0_1 0
y_12_0_2 0
y_12_1_0 0
y_12_1_1 0
y_12_1_2 0
y_13_0_0 1
y_13_0_1 0
y_13_0_2 0
y_13_1_0 0
y_13_1_1 1
y_13_1_2 0
y_14_0_0 0
y_14_0_1 0
y_14_0_2 4.0297626346941229e-15
y_14_1_0 -4.2622155804750150e-15
y_14_1_1 1.0000000000000162e+00
y_14_1_2 4.6334464043340517e-15
y_15_0_0 0
y_15_0_1 1
y_15_0_2 0
y_15_1_0 0
y_15_1_1 0
y_15_1_2 0
x_0_1_0_0 0
x_0_1_0_1 1
x_0_1_0_2 0
x_0_1_1_0 0
x_0_1_1_1 0
x_0_1_1_2 0
x_0_2_0_0 0
x_0_2_0_1 0
x_0_2_0_2 0
x_0_2_1_0 0
x_0_2_1_1 0
x_0_2_1_2 0
x_0_3_0_0 0
x_0_3_0_1 0
x_0_3_0_2 0
x_0_3_1_0 0
x_0_3_1_1 0
x_0_3_1_2 0
x_0_4_0_0 0
x_0_4_0_1 0
x_0_4_0_2 0
x_0_4_1_0 0
x_0_4_1_1 0
x_0_4_1_2 0
x_0_5_0_0 0
x_0_5_0_1 0
x_0_5_0_2 0
x_0_5_1_0 0
x_0_5_1_1 0
x_0_5_1_2 0
x_0_6_0_0 0
x_0_6_0_1 0
x_0_6_0_2 0
x_0_6_1_0 0
x_0_6_1_1 0
x_0_6_1_2 0
x_0_7_0_0 0
x_0_7_0_1 0
x_0_7_0_2 0
x_0_7_1_0 0
x_0_7_1_1 0
x_0_7_1_2 0
x_0_8_0_0 0
x_0_8_0_1 0
x_0_8_0_2 0
x_0_8_1_0 0
x_0_8_1_1 1.0000000000000655e+00
x_0_8_1_2 2.5174307083375425e-14
x_0_9_0_0 0
x_0_9_0_1 1.0000000000000158e+00
x_0_9_0_2 -1.58865975929956e-14
x_0_9_1_0 0
x_0_9_1_1 0
x_0_9_1_2 0
x_0_10_0_0 1.0000000000000289e+00
x_0_10_0_1 0
x_0_10_0_2 4.1092129698938606e-14
x_0_10_1_0 0
x_0_10_1_1 -7.67996777284452e-14
x_0_10_1_2 -1.58865975929956e-14
x_0_11_0_0 0
x_0_11_0_1 0
x_0_11_0_2 0
x_0_11_1_0 0
x_0_11_1_1 0
x_0_11_1_2 0
x_0_12_0_0 9.9999999999999956e-01
x_0_12_0_1 0
x_0_12_0_2 0
x_0_12_1_0 0
x_0_12_1_1 0
x_0_12_1_2 0
x_0_13_0_0 0
x_0_13_0_1 0
x_0_13_0_2 0
x_0_13_1_0 0
x_0_13_1_1 0
x_0_13_1_2 0
x_0_14_0_0 0
x_0_14_0_1 0
x_0_14_0_2 0
x_0_14_1_0 0
x_0_14_1_1 1.0000000000000107e+00
x_0_14_1_2 0
x_0_15_0_0 0
x_0_15_0_1 0
x_0_15_0_2 0
x_0_15_1_0 0
x_0_15_1_1 0
x_0_15_1_2 0
x_1_2_0_0 0
x_1_2_0_1 0
x_1_2_0_2 0
x_1_2_1_0 0
x_1_2_1_1 0
x_1_2_1_2 0
x_1_3_0_0 0
x_1_3_0_1 1
x_1_3_0_2 0
x_1_3_1_0 0
x_1_3_1_1 0
x_1_3_1_2 0
x_1_4_0_0 0
x_1_4_0_1 0
x_1_4_0_2 0
x_1_4_1_0 0
x_1_4_1_1 0
x_1_4_1_2 0
x_1_5_0_0 0
x_1_5_0_1 0
x_1_5_0_2 0
x_1_5_1_0 0
x_1_5_1_1 0
x_1_5_1_2 0
x_1_6_0_0 0
x_1_6_0_1 0
x_1_6_0_2 0
x_1_6_1_0 0
x_1_6_1_1 0
x_1_6_1_2 0
x_1_7_0_0 0
x_1_7_0_1 0
x_1_7_0_2 0
x_1_7_1_0 0
x_1_7_1_1 0
x_1_7_1_2 0
x_1_8_0_0 0
x_1_8_0_1 0
x_1_8_0_2 0
x_1_8_1_0 0
x_1_8_1_1 0
x_1_8_1_2 0
x_1_9_0_0 0
x_1_9_0_1 0
x_1_9_0_2 0
x_1_9_1_0 0
x_1_9_1_1 0
x_1_9_1_2 0
x_1_10_0_0 0
x_1_10_0_1 0
x_1_10_0_2 0
x_1_10_1_0 0
x_1_10_1_1 0
x_1_10_1_2 0
x_1_11_0_0 0
x_1_11_0_1 0
x_1_11_0_2 0
x_1_11_1_0 0
x_1_11_1_1 0
x_1_11_1_2 0
x_1_12_0_0 0
x_1_12_0_1 0
x_1_12_0_2 0
x_1_12_1_0 0
x_1_12_1_1 0
x_1_12_1_2 0
x_1_13_0_0 0
x_1_13_0_1 0
x_1_13_0_2 0
x_1_13_1_0 0
x_1_13_1_1 0
x_1_13_1_2 0
x_1_14_0_0 0
x_1_14_0_1 0
x_1_14_0_2 0
x_1_14_1_0 0
x_1_14_1_1 0
x_1_14_1_2 0
x_1_15_0_0 0
x_1_15_0_1 0
x_1_15_0_2 0
x_1_15_1_0 0
x_1_15_1_1 0
x_1_15_1_2 0
x_2_3_0_0 0
x_2_3_0_1 0
x_2_3_0_2 0
x_2_3_1_0 0
x_2_3_1_1 0
x_2_3_1_2 0
x_2_4_0_0 0
x_2_4_0_1 0
x_2_4_0_2 0
x_2_4_1_0 0
x_2_4_1_1 -2.0816681711721685e-14
x_2_4_1_2 0
x_2_5_0_0 0
x_2_5_0_1 0
x_2_5_0_2 0
x_2_5_1_0 0
x_2_5_1_1 1.0000000000000127e+00
x_2_5_1_2 0
x_2_6_0_0 0
x_2_6_0_1 0
x_2_6_0_2 0
x_2_6_1_0 0
x_2_6_1_1 0
x_2_6_1_2 0
x_2_7_0_0 0
x_2_7_0_1 0
x_2_7_0_2 0
x_2_7_1_0 0
x_2_7_1_1 0
x_2_7_1_2 0
x_2_8_0_0 0
x_2_8_0_1 0
x_2_8_0_2 0
x_2_8_1_0 0
x_2_8_1_1 0
x_2_8_1_2 0
x_2_9_0_0 0
x_2_9_0_1 0
x_2_9_0_2 0
x_2_9_1_0 0
x_2_9_1_1 0
x_2_9_1_2 0
x_2_10_0_0 0
x_2_10_0_1 0
x_2_10_0_2 0
x_2_10_1_0 0
x_2_10_1_1 0
x_2_10_1_2 0
x_2_11_0_0 0
x_2_11_0_1 0
x_2_11_0_2 0
x_2_11_1_0 0
x_2_11_1_1 0
x_2_11_1_2 0
x_2_12_0_0 0
x_2_12_0_1 0
x_2_12_0_2 0
x_2_12_1_0 0
x_2_12_1_1 0
x_2_12_1_2 0
x_2_13_0_0 0
x_2_13_0_1 0
x_2_13_0_2 0
x_2_13_1_0 0
x_2_13_1_1 1.00000000000004
x_2_13_1_2 0
x_2_14_0_0 0
x_2_14_0_1 0
x_2_14_0_2 0
x_2_14_1_0 0
x_2_14_1_1 8.2104462117982280e-15
x_2_14_1_2 0
x_2_15_0_0 0
x_2_15_0_1 0
x_2_15_0_2 0
x_2_15_1_0 0
x_2_15_1_1 0
x_2_15_1_2 0
x_3_4_0_0 0
x_3_4_0_1 0
x_3_4_0_2 0
x_3_4_1_0 0
x_3_4_1_1 0
x_3_4_1_2 0
x_3_5_0_0 0
x_3_5_0_1 0
x_3_5_0_2 0
x_3_5_1_0 0
x_3_5_1_1 0
x_3_5_1_2 0
x_3_6_0_0 0
x_3_6_0_1 1
x_3_6_0_2 1.5858842017379970e-14
x_3_6_1_0 0
x_3_6_1_1 0
x_3_6_1_2 0
x_3_7_0_0 0
x_3_7_0_1 0
x_3_7_0_2 0
x_3_7_1_0 0
x_3_7_1_1 0
x_3_7_1_2 0
x_3_8_0_0 0
x_3_8_0_1 0
x_3_8_0_2 0
x_3_8_1_0 0
x_3_8_1_1 0
x_3_8_1_2 0
x_3_9_0_0 0
x_3_9_0_1 -1.5758228055773316e-14
x_3_9_0_2 0
x_3_9_1_0 0
x_3_9_1_1 0
x_3_9_1_2 0
x_3_10_0_0 0
x_3_10_0_1 0
x_3_10_0_2 0
x_3_10_1_0 0
x_3_10_1_1 0
x_3_10_1_2 0
x_3_11_0_0 0
x_3_11_0_1 0
x_3_11_0_2 0
x_3_11_1_0 0
x_3_11_1_1 0
x_3_11_1_2 0
x_3_12_0_0 0
x_3_12_0_1 0
x_3_12_0_2 0
x_3_12_1_0 0
x_3_12_1_1 0
x_3_12_1_2 0
x_3_13_0_0 0
x_3_13_0_1 0
x_3_13_0_2 0
x_3_13_1_0 0
x_3_13_1_1 0
x_3_13_1_2 0
x_3_14_0_0 0
x_3_14_0_1 0
x_3_14_0_2 0
x_3_14_1_0 0
x_3_14_1_1 0
x_3_14_1_2 0
x_3_15_0_0 0
x_3_15_0_1 1.5751289161869408e-14
x_3_15_0_2 0
x_3_15_1_0 0
x_3_15_1_1 0
x_3_15_1_2 0
x_4_5_0_0 0
x_4_5_0_1 0
x_4_5_0_2 0
x_4_5_1_0 4.2622155804750150e-15
x_4_5_1_1 1
x_4_5_1_2 0
x_4_6_0_0 0
x_4_6_0_1 0
x_4_6_0_2 7.9745238190653822e-15
x_4_6_1_0 0
x_4_6_1_1 0
x_4_6_1_2 -1.1917550279960665e-14
x_4_7_0_0 0
x_4_7_0_1 0
x_4_7_0_2 0
x_4_7_1_0 0
x_4_7_1_1 0
x_4_7_1_2 0
x_4_8_0_0 0
x_4_8_0_1 0
x_4_8_0_2 0
x_4_8_1_0 0
x_4_8_1_1 0
x_4_8_1_2 0
x_4_9_0_0 0
x_4_9_0_1 0
x_4_9_0_2 0
x_4_9_1_0 0
x_4_9_1_1 0
x_4_9_1_2 0
x_4_10_0_0 0
x_4_10_0_1 0
x_4_10_0_2 0
x_4_10_1_0 0
x_4_10_1_1 0
x_4_10_1_2 0
x_4_11_0_0 0
x_4_11_0_1 0
x_4_11_0_2 0
x_4_11_1_0 0
x_4_11_1_1 0
x_4_11_1_2 0
x_4_12_0_0 0
x_4_12_0_1 0
x_4_12_0_2 0
x_4_12_1_0 0
x_4_12_1_1 0
x_4_12_1_2 0
x_4_13_0_0 0
x_4_13_0_1 0
x_4_13_0_2 0
x_4_13_1_0 0
x_4_13_1_1 0
x_4_13_1_2 0
x_4_14_0_0 0
x_4_14_0_1 0
x_4_14_0_2 7.9745238190653822e-15
x_4_14_1_0 -4.2622155804750150e-15
x_4_14_1_1 1.0000000000000366e+00
x_4_14_1_2 2.1177504194724861e-14
x_4_15_0_0 0
x_4_15_0_1 0
x_4_15_0_2 0
x_4_15_1_0 0
x_4_15_1_1 0
x_4_15_1_2 0
x_5_6_0_0 0
x_5_6_0_1 0
x_5_6_0_2 0
x_5_6_1_0 0
x_5_6_1_1 0
x_5_6_1_2 0
x_5_7_0_0 0
x_5_7_0_1 0
x_5_7_0_2 0
x_5_7_1_0 0
x_5_7_1_1 0
x_5_7_1_2 0
x_5_8_0_0 0
x_5_8_0_1 0
x_5_8_0_2 0
x_5_8_1_0 0
x_5_8_1_1 0
x_5_8_1_2 0
x_5_9_0_0 0
x_5_9_0_1 0
x_5_9_0_2 0
x_5_9_1_0 0
x_5_9_1_1 0
x_5_9_1_2 0
x_5_10_0_0 0
x_5_10_0_1 0
x_5_10_0_2 0
x_5_10_1_0 0
x_5_10_1_1 0
x_5_10_1_2 0
x_5_11_0_0 0
x_5_11_0_1 0
x_5_11_0_2 0
x_5_11_1_0 0
x_5_11_1_1 0
x_5_11_1_2 0
x_5_12_0_0 0
x_5_12_0_1 0
x_5_12_0_2 0
x_5_12_1_0 0
x_5_12_1_1 0
x_5_12_1_2 0
x_5_13_0_0 0
x_5_13_0_1 0
x_5_13_0_2 0
x_5_13_1_0 0
x_5_13_1_1 0
x_5_13_1_2 0
x_5_14_0_0 0
x_5_14_0_1 0
x_5_14_0_2 0
x_5_14_1_0 -4.2622155804750150e-15
x_5_14_1_1 -1.2604500776447480e-14
x_5_14_1_2 0
x_5_15_0_0 0
x_5_15_0_1 0
x_5_15_0_2 0
x_5_15_1_0 0
x_5_15_1_1 0
x_5_15_1_2 0
x_6_7_0_0 0
x_6_7_0_1 0
x_6_7_0_2 0
x_6_7_1_0 0
x_6_7_1_1 0
x_6_7_1_2 0
x_6_8_0_0 0
x_6_8_0_1 0
x_6_8_0_2 0
x_6_8_1_0 0
x_6_8_1_1 0
x_6_8_1_2 0
x_6_9_0_0 0
x_6_9_0_1 0
x_6_9_0_2 0
x_6_9_1_0 0
x_6_9_1_1 0
x_6_9_1_2 0
x_6_10_0_0 0
x_6_10_0_1 0
x_6_10_0_2 0
x_6_10_1_0 0
x_6_10_1_1 0
x_6_10_1_2 0
x_6_11_0_0 0
x_6_11_0_1 0
x_6_11_0_2 0
x_6_11_1_0 0
x_6_11_1_1 0
x_6_11_1_2 0
x_6_12_0_0 0
x_6_12_0_1 0
x_6_12_0_2 0
x_6_12_1_0 0
x_6_12_1_1 0
x_6_12_1_2 0
x_6_13_0_0 0
x_6_13_0_1 0
x_6_13_0_2 0
x_6_13_1_0 0
x_6_13_1_1 0
x_6_13_1_2 0
x_6_14_0_0 0
x_6_14_0_1 0
x_6_14_0_2 0
x_6_14_1_0 0
x_6_14_1_1 0
x_6_14_1_2 -1.1910611386056758e-14
x_6_15_0_0 0
x_6_15_0_1 1
x_6_15_0_2 0
x_6_15_1_0 0
x_6_15_1_1 0
x_6_15_1_2 0
x_7_8_0_0 0.999999999999971
x_7_8_0_1 0
x_7_8_0_2 0
x_7_8_1_0 0
x_7_8_1_1 0
x_7_8_1_2 0
x_7_9_0_0 0
x_7_9_0_1 0
x_7_9_0_2 0
x_7_9_1_0 0
x_7_9_1_1 0
x_7_9_1_2 0
x_7_10_0_0 0.999999999999971
x_7_10_0_1 0
x_7_10_0_2 0
x_7_10_1_0 0
x_7_10_1_1 0
x_7_10_1_2 0
x_7_11_0_0 0
x_7_11_0_1 0
x_7_11_0_2 0
x_7_11_1_0 0
x_7_11_1_1 0
x_7_11_1_2 0
x_7_12_0_0 0
x_7_12_0_1 0
x_7_12_0_2 0
x_7_12_1_0 0
x_7_12_1_1 0
x_7_12_1_2 0
x_7_13_0_0 0
x_7_13_0_1 0
x_7_13_0_2 0
x_7_13_1_0 0
x_7_13_1_1 0
x_7_13_1_2 0
x_7_14_0_0 0
x_7_14_0_1 0
x_7_14_0_2 0
x_7_14_1_0 0
x_7_14_1_1 0
x_7_14_1_2 0
x_7_15_0_0 0
x_7_15_0_1 0
x_7_15_0_2 0
x_7_15_1_0 0
x_7_15_1_1 0
x_7_15_1_2 0
x_8_9_0_0 0
x_8_9_0_1 0
x_8_9_0_2 0
x_8_9_1_0 0
x_8_9_1_1 0
x_8_9_1_2 0
x_8_10_0_0 0
x_8_10_0_1 0
x_8_10_0_2 0
x_8_10_1_0 0
x_8_10_1_1 0
x_8_10_1_2 0
x_8_11_0_0 1
x_8_11_0_1 0
x_8_11_0_2 0
x_8_11_1_0 0
x_8_11_1_1 0
x_8_11_1_2 0
x_8_12_0_0 0
x_8_12_0_1 0
x_8_12_0_2 0
x_8_12_1_0 0
x_8_12_1_1 0
x_8_12_1_2 0
x_8_13_0_0 0
x_8_13_0_1 0
x_8_13_0_2 0
x_8_13_1_0 0
x_8_13_1_1 9.9999999999996014e-01
x_8_13_1_2 0
x_8_14_0_0 0
x_8_14_0_1 0
x_8_14_0_2 0
x_8_14_1_0 0
x_8_14_1_1 -1.0793449467527694e-14
x_8_14_1_2 0
x_8_15_0_0 0
x_8_15_0_1 0
x_8_15_0_2 0
x_8_15_1_0 0
x_8_15_1_1 0
x_8_15_1_2 0
x_9_10_0_0 0
x_9_10_0_1 0
x_9_10_0_2 0
x_9_10_1_0 0
x_9_10_1_1 0
x_9_10_1_2 0
x_9_11_0_0 0
x_9_11_0_1 0
x_9_11_0_2 0
x_9_11_1_0 0
x_9_11_1_1 0
x_9_11_1_2 0
x_9_12_0_0 0
x_9_12_0_1 0
x_9_12_0_2 0
x_9_12_1_0 0
x_9_12_1_1 0
x_9_12_1_2 0
x_9_13_0_0 0
x_9_13_0_1 0
x_9_13_0_2 0
x_9_13_1_0 0
x_9_13_1_1 0
x_9_13_1_2 0
x_9_14_0_0 0
x_9_14_0_1 0
x_9_14_0_2 0
x_9_14_1_0 0
x_9_14_1_1 0
x_9_14_1_2 0
x_9_15_0_0 0
x_9_15_0_1 1
x_9_15_0_2 0
x_9_15_1_0 0
x_9_15_1_1 0
x_9_15_1_2 0
x_10_11_0_0 0
x_10_11_0_1 0
x_10_11_0_2 0
x_10_11_1_0 0
x_10_11_1_1 0
x_10_11_1_2 0
x_10_12_0_0 0
x_10_12_0_1 0
x_10_12_0_2 0
x_10_12_1_0 0
x_10_12_1_1 0
x_10_12_1_2 0
x_10_13_0_0 0
x_10_13_0_1 0
x_10_13_0_2 0
x_10_13_1_0 0
x_10_13_1_1 0
x_10_13_1_2 0
x_10_14_0_0 0
x_10_14_0_1 0
x_10_14_0_2 0
x_10_14_1_0 0
x_10_14_1_1 0
x_10_14_1_2 0
x_10_15_0_0 0
x_10_15_0_1 0
x_10_15_0_2 0
x_10_15_1_0 0
x_10_15_1_1 0
x_10_15_1_2 0
x_11_12_0_0 0
x_11_12_0_1 0
x_11_12_0_2 0
x_11_12_1_0 0
x_11_12_1_1 0
x_11_12_1_2 0
x_11_13_0_0 1.0000000000000004e+00
x_11_13_0_1 0
x_11_13_0_2 0
x_11_13_1_0 0
x_11_13_1_1 0
x_11_13_1_2 0
x_11_14_0_0 0
x_11_14_0_1 0
x_11_14_0_2 0
x_11_14_1_0 0
x_11_14_1_1 0
x_11_14_1_2 0
x_11_15_0_0 0
x_11_15_0_1 0
x_11_15_0_2 0
x_11_15_1_0 0
x_11_15_1_1 0
x_11_15_1_2 0
x_12_13_0_0 1.0000000000000004e+00
x_12_13_0_1 0
x_12_13_0_2 0
x_12_13_1_0 0
x_12_13_1_1 0
x_12_13_1_2 0
x_12_14_0_0 0
x_12_14_0_1 0
x_12_14_0_2 0
x_12_14_1_0 0
x_12_14_1_1 0
x_12_14_1_2 0
x_12_15_0_0 0
x_12_15_0_1 0
x_12_15_0_2 0
x_12_15_1_0 0
x_12_15_1_1 0
x_12_15_1_2 0
x_13_14_0_0 0
x_13_14_0_1 0
x_13_14_0_2 0
x_13_14_1_0 0
x_13_14_1_1 0
x_13_14_1_2 0
x_13_15_0_0 0
x_13_15_0_1 0
x_13_15_0_2 0
x_13_15_1_0 0
x_13_15_1_1 0
x_13_15_1_2 0
x_14_15_0_0 0
x_14_15_0_1 0
x_14_15_0_2 0
x_14_15_1_0 0
x_14_15_1_1 0
x_14_15_1_2 0
